; benchmark generated from python API
(set-info :status unknown)
(declare-datatypes ((RealState 0)) (((RMk1 (rval1 Real)) (RMk2 (rval2 Real)))))
 (assert
 (forall ((|v9:0| Real) )(exists ((|v8:1_st| RealState) (val!920 Real) )(forall ((|v7:2| Real) )(exists ((|v6:3_st| RealState) (val!921 Real) )(forall ((|v5:4| Real) )(exists ((|v4:5_st| RealState) (val!922 Real) )(forall ((|v3:6| Real) )(exists ((|v2:7_st| RealState) (val!923 Real) )(forall ((|v1:8| Real) )(exists ((|v0:9_st| RealState) (val!924 Real) )(let ((?x156 (- 3.0)))
 (let (($x1058 (<= (+ (+ (* (- 4.0) |v7:2|) (* 6.0 (rval2 |v6:3_st|))) (rval2 |v0:9_st|)) ?x156)))
 (let ((?x388 (- 10.0)))
 (let ((?x495 (+ (+ (* (- 11.0) |v1:8|) (* (- 9.0) |v7:2|)) (* 7.0 (rval2 |v4:5_st|)))))
 (let ((?x275 (+ (+ (* (- 7.0) |v1:8|) (* (- 18.0) (rval2 |v6:3_st|))) (* 6.0 (rval2 |v2:7_st|)))))
 (let ((?x995 (- 16.0)))
 (let (($x883 (<= (+ (+ (* 5.0 |v5:4|) (* 3.0 (rval2 |v2:7_st|))) (* (- 9.0) |v1:8|)) ?x995)))
 (let ((?x515 (- 8.0)))
 (let ((?x148 (+ (+ (* ?x156 |v5:4|) (* (- 15.0) |v9:0|)) (* (- 14.0) (rval2 |v6:3_st|)))))
 (let ((?x281 (+ (+ (* (- 11.0) (rval2 |v2:7_st|)) (* (- 15.0) (rval2 |v6:3_st|))) (* (- 13.0) |v5:4|))))
 (let ((?x824 (+ (+ (* 7.0 (rval2 |v0:9_st|)) (* 17.0 |v5:4|)) (* (- 2.0) (rval2 |v6:3_st|)))))
 (let ((?x1178 (+ (+ (* (- 2.0) (rval2 |v2:7_st|)) (* (- 11.0) (rval2 |v8:1_st|))) (* (- 12.0) (rval2 |v6:3_st|)))))
 (let (($x89 (and (or (<= ?x1178 3.0) (<= ?x824 3.0)) (or (<= ?x281 3.0) (<= ?x148 ?x515)))))
 (let (($x260 (and (or $x89 (and $x883 (and (<= ?x275 19.0) (<= ?x495 ?x388)))) $x1058)))
 (let (($x322 (<= (+ (+ (* 17.0 |v5:4|) (* ?x156 |v5:4|)) (* (- 12.0) (rval2 |v0:9_st|))) 8.0)))
 (let ((?x475 (+ (+ (* (- 2.0) (rval2 |v8:1_st|)) (* 6.0 |v7:2|)) (* (- 15.0) |v1:8|))))
 (let ((?x112 (+ (+ (* 13.0 |v1:8|) (* (- 7.0) |v9:0|)) (* (- 1.0) (rval2 |v8:1_st|)))))
 (let ((?x470 (- 9.0)))
 (let (($x1112 (<= (+ (+ (* (- 5.0) |v7:2|) (* 20.0 |v9:0|)) (* (- 2.0) |v5:4|)) ?x470)))
 (let ((?x734 (+ (+ (* 19.0 (rval2 |v8:1_st|)) (* 8.0 (rval2 |v4:5_st|))) (* ?x470 (rval2 |v6:3_st|)))))
 (let ((?x1409 (- 13.0)))
 (let ((?x1216 (+ (+ (* 11.0 (rval2 |v4:5_st|)) (* 15.0 (rval2 |v2:7_st|))) (* ?x388 |v3:6|))))
 (let ((?x590 (+ (+ (* 18.0 |v1:8|) (* (- 11.0) (rval2 |v0:9_st|))) (* (- 11.0) |v3:6|))))
 (let (($x580 (or (and (or (<= ?x590 11.0) (<= ?x1216 ?x1409)) (<= ?x734 19.0)) (or (or $x1112 (<= ?x112 11.0)) (and (<= ?x475 20.0) $x322)))))
 (let ((?x522 (+ (+ (* 5.0 (rval2 |v6:3_st|)) (* (- 2.0) (rval2 |v8:1_st|))) (* (- 20.0) |v7:2|))))
 (let (($x945 (not (= |v0:9_st| (RMk1 val!924)))))
 (let (($x729 (not (= |v2:7_st| (RMk1 val!923)))))
 (let (($x655 (not (= |v4:5_st| (RMk1 val!922)))))
 (let (($x501 (not (= |v6:3_st| (RMk1 val!921)))))
 (let (($x699 (not (= |v8:1_st| (RMk1 val!920)))))
 (and $x699 $x501 $x655 $x729 $x945 (or (and (<= ?x522 ?x1409) $x580) $x260)))))))))))))))))))))))))))))))))
 )
 )
 )
 )
 )
 )
 )
 )
 )
 )
(check-sat)
